Name:		mgval_0.50_7B
Optimal value:	276
#Vehicles:	4
Capacity:	150
Depot Node:	1
#Nodes:		40
#Edges:		25
#Arcs:		66
#Required N:	26
#Required E:	12
#Required A:	33

ReN.	DEMAND	S. COST
N2	8	8
N3	8	8
N4	14	14
N5	3	3
N6	7	7
N8	22	22
N10	3	3
N11	16	16
N13	23	23
N15	7	7
N17	8	8
N20	4	4
N21	6	6
N22	1	1
N25	3	3
N26	30	30
N27	14	14
N28	6	6
N29	4	4
N30	14	14
N32	10	10
N33	9	9
N35	27	27
N36	13	13
N37	11	11
N39	7	7

ReE.	FROM N.	TO N.	T. COST	DEMAND	S. COST
E14	30	31	3	10	10
E15	6	12	2	4	4
E16	11	16	3	10	10
E17	3	37	4	6	6
E18	1	10	8	12	12
E19	1	40	4	10	10
E20	23	24	2	7	7
E21	31	38	4	9	9
E22	18	22	6	13	13
E23	15	16	3	8	8
E24	10	16	4	8	8
E25	7	13	1	3	3

EDGE	FROM N.	TO N.	T. COST
NrE1	1	35	4
NrE2	13	17	2
NrE3	27	34	3
NrE4	4	5	3
NrE5	37	38	2
NrE6	3	7	2
NrE7	13	19	6
NrE8	17	18	5
NrE9	1	8	4
NrE10	21	24	3
NrE11	13	18	2
NrE12	26	33	5
NrE13	4	38	3

ReA.	FROM N.	TO N.	T. COST	DEMAND	S. COST
A34	2	36	3	12	12
A35	21	22	1	4	4
A36	18	19	4	14	14
A37	3	4	2	2	2
A38	12	13	6	4	4
A39	13	12	6	4	4
A40	21	20	2	3	3
A41	25	22	1	2	2
A42	15	9	2	5	5
A43	12	11	7	5	5
A44	34	26	5	8	8
A45	37	31	5	4	4
A46	2	1	2	2	2
A47	39	38	7	9	9
A48	36	29	4	5	5
A49	28	35	10	7	7
A50	20	17	6	12	12
A51	31	37	5	3	3
A52	33	34	3	8	8
A53	37	30	3	3	3
A54	6	1	3	4	4
A55	8	9	5	12	12
A56	31	32	5	6	6
A57	1	6	3	4	4
A58	23	20	3	4	4
A59	9	10	2	3	3
A60	14	8	7	5	5
A61	9	15	2	4	4
A62	35	34	6	8	8
A63	24	25	2	2	2
A64	1	2	2	1	1
A65	7	6	4	4	4
A66	12	17	4	8	8

ARC	FROM N.	TO N.	T. COST
NrA1	2	3	5
NrA2	6	7	4
NrA3	39	5	2
NrA4	36	35	6
NrA5	2	6	2
NrA6	39	32	2
NrA7	28	27	3
NrA8	15	14	4
NrA9	11	12	7
NrA10	26	34	5
NrA11	32	31	5
NrA12	25	24	2
NrA13	35	36	6
NrA14	1	11	3
NrA15	5	39	2
NrA16	26	27	4
NrA17	33	1	4
NrA18	30	29	3
NrA19	6	2	2
NrA20	3	2	5
NrA21	20	23	3
NrA22	4	3	2
NrA23	32	39	2
NrA24	27	28	3
NrA25	22	25	1
NrA26	35	28	10
NrA27	29	36	4
NrA28	8	40	5
NrA29	37	36	4
NrA30	8	14	7
NrA31	30	37	3
NrA32	36	37	4
NrA33	10	9	2
